(set-logic HORN)
(declare-datatypes ((Nat_0 0)) (((Z_3 ) (Z_4 (unS_0 Nat_0)))))
(declare-fun diseqNat_0 (Nat_0 Nat_0) Bool)
(declare-datatypes ((list_0 0)) (((nil_0 ) (cons_0 (head_0 Nat_0) (tail_0 list_0)))))
(declare-fun diseqlist_0 (list_0 list_0) Bool)
(declare-fun butlast_0 (list_0 list_0) Bool)
(declare-fun x_3 (list_0 list_0 list_0) Bool)
(declare-fun butlastConcat_0 (list_0 list_0 list_0) Bool)
(assert (forall ((x_41 Nat_0))
	(diseqNat_0 Z_3 (Z_4 x_41))))
(assert (forall ((x_42 Nat_0))
	(diseqNat_0 (Z_4 x_42) Z_3)))
(assert (forall ((x_43 Nat_0) (x_44 Nat_0))
	(=> (diseqNat_0 x_43 x_44) (diseqNat_0 (Z_4 x_43) (Z_4 x_44)))))
(assert (forall ((x_29 Nat_0) (x_30 list_0))
	(diseqlist_0 nil_0 (cons_0 x_29 x_30))))
(assert (forall ((x_31 Nat_0) (x_32 list_0))
	(diseqlist_0 (cons_0 x_31 x_32) nil_0)))
(assert (forall ((x_33 Nat_0) (x_34 list_0) (x_35 Nat_0) (x_36 list_0))
	(=> (diseqNat_0 x_33 x_35) (diseqlist_0 (cons_0 x_33 x_34) (cons_0 x_35 x_36)))))
(assert (forall ((x_33 Nat_0) (x_34 list_0) (x_35 Nat_0) (x_36 list_0))
	(=> (diseqlist_0 x_34 x_36) (diseqlist_0 (cons_0 x_33 x_34) (cons_0 x_35 x_36)))))
(assert (forall ((x_8 list_0) (x_1 Nat_0) (x_2 list_0) (y_0 Nat_0))
	(=> (butlast_0 x_8 (cons_0 x_1 x_2)) (butlast_0 (cons_0 y_0 x_8) (cons_0 y_0 (cons_0 x_1 x_2))))))
(assert (forall ((y_0 Nat_0))
	(butlast_0 nil_0 (cons_0 y_0 nil_0))))
(assert (butlast_0 nil_0 nil_0))
(assert (forall ((x_12 list_0) (z_1 Nat_0) (xs_0 list_0) (y_1 list_0))
	(=> (x_3 x_12 xs_0 y_1) (x_3 (cons_0 z_1 x_12) (cons_0 z_1 xs_0) y_1))))
(assert (forall ((x_13 list_0))
	(x_3 x_13 nil_0 x_13)))
(assert (forall ((x_14 list_0) (x_15 list_0) (z_2 Nat_0) (x_6 list_0) (x_5 list_0))
	(=> (and (butlast_0 x_15 (cons_0 z_2 x_6)) (x_3 x_14 x_5 x_15)) (butlastConcat_0 x_14 x_5 (cons_0 z_2 x_6)))))
(assert (forall ((x_17 list_0) (x_5 list_0))
	(=> (butlast_0 x_17 x_5) (butlastConcat_0 x_17 x_5 nil_0))))
(assert (forall ((x_19 list_0) (x_20 list_0) (x_21 list_0) (xs_1 list_0) (ys_0 list_0))
	(=> (and (diseqlist_0 x_20 x_21) (x_3 x_19 xs_1 ys_0) (butlast_0 x_20 x_19) (butlastConcat_0 x_21 xs_1 ys_0)) false)))
(check-sat)
(get-model)
